; benchmark generated from python API
(set-info :status unknown)
(declare-fun S_2 () Real)
(declare-fun S_4 () Real)
(declare-fun C () Real)
(declare-fun S_3 () Real)
(declare-fun S_1 () Real)
(declare-fun S_0 () Real)
(declare-fun A_0 () Real)
(declare-fun L_0 () Real)
(declare-fun L0 () Real)
(declare-fun B () Real)
(declare-fun A_3 () Real)
(declare-fun A_4 () Real)
(declare-fun A_1 () Real)
(declare-fun L_2 () Real)
(declare-fun A_2 () Real)
(declare-fun L_1 () Real)
(assert
 (let (($x37 (>= L0 0.0)))
 (let (($x732 (>= C 5.0)))
 (let (($x562 (>= B 5.0)))
 (let ((?x499 (* (- 1.0) A_4)))
 (let ((?x220 (* (- 1.0) S_1)))
 (let ((?x540 (* (- 1.0) B)))
 (let ((?x2223 (* (- 3.0) C)))
 (let (($x8099 (<= (+ (* (- 1.0) C) ?x540 (* (- 1.0) S_3) ?x499 A_3 S_4) 0.0)))
 (let (($x8143 (<= (+ L_0 ?x540 (* (- 1.0) A_1) ?x499 A_3 S_4 (* (- 2.0) C)) 0.0)))
 (let (($x8104 (<= (+ (* (- 4.0) C) ?x540 (* (- 1.0) S_0) ?x499 A_3 S_4) 0.0)))
 (let (($x8089 (<= (+ (* (- 2.0) C) ?x540 ?x499 A_3 S_4 (* (- 1.0) S_2)) 0.0)))
 (let (($x7992 (or (<= (+ A_1 (* (- 1.0) L_0) (* (- 1.0) S_2)) 0.0) (<= (+ C S_0 (* (- 1.0) S_2)) 0.0))))
 (let (($x10154 (or (<= (+ (* (- 1.0) C) A_1 (* (- 1.0) L_0) ?x220) 0.0) (not (<= 0.0 (+ L_0 ?x2223 (* (- 1.0) A_1) S_4))))))
 (let (($x10160 (or (<= (+ (* 2.0 C) S_0 (* (- 1.0) S_3)) 0.0) (<= (+ (* (- 1.0) L_0) (* (- 1.0) S_3) A_1 C) 0.0))))
 (let (($x8011 (<= (+ (* (- 1.0) L_0) A_1 (* (- 1.0) S_4) (* 2.0 C)) 0.0)))
 (let (($x834 (>= S_4 (+ A_3 (* (- 1.0) L_2)))))
 (let (($x10412 (or $x834 (not (<= 0.0 (+ L_0 C (* (- 1.0) A_1) S_0))) $x8011)))
 (let (($x8004 (<= 0.0 (+ L_0 C (* (- 1.0) A_1) S_0))))
 (let (($x7673 (or $x834 (<= (+ (* 3.0 C) S_0 (* (- 1.0) S_4)) 0.0) $x8004)))
 (let (($x7784 (<= S_4 (+ A_4 (* (- 1.0) A_3) A_1 (* (- 1.0) L_1) (* 2.0 C)))))
 (let (($x54 (= L_1 L_0)))
 (let (($x64 (= L_2 L_1)))
 (let (($x7765 (or $x64 (<= S_4 (+ A_4 (* (- 1.0) A_3) A_2 (* (- 1.0) L_2) C)))))
 (let ((?x511 (* (- 1.0) A_1)))
 (let ((?x488 (* (- 1.0) L_2)))
 (let ((?x320 (* (- 1.0) C)))
 (let (($x10440 (or (not (<= (+ A_1 (* (- 1.0) L_0)) (+ ?x540 ?x488 A_2 ?x320))) (= (+ ?x320 A_2 ?x488 ?x540 ?x511 L_0) 0.0))))
 (let (($x1971 (= L_2 L_0)))
 (let (($x711 (not (= L_0 L_1))))
 (let (($x7592 (or $x711 $x1971 (<= (+ A_1 (* (- 1.0) L_0) L_2 (* (- 1.0) A_2) C) 0.0))))
 (let ((?x7499 (+ ?x540 ?x488 A_2 ?x320)))
 (let (($x7572 (<= (+ A_1 (* (- 1.0) L_0)) ?x7499)))
 (let (($x120 (>= S_4 S_3)))
 (let ((?x584 (* (- 1.0) L_0)))
 (let ((?x891 (+ A_0 ?x584)))
 (let ((?x478 (* (- 1.0) L_1)))
 (let ((?x229 (+ ?x540 ?x478 A_1 ?x320)))
 (let (($x117 (>= S_3 S_2)))
 (let (($x36 (>= L_0 L0)))
 (let (($x111 (>= S_1 S_0)))
 (let (($x114 (>= S_2 S_1)))
 (let (($x122 (>= A_1 A_0)))
 (let (($x124 (>= A_3 A_2)))
 (let (($x125 (>= A_4 A_3)))
 (and (not (<= (+ A_2 ?x488) S_3)) (<= (+ A_1 ?x478) S_3) $x125 $x124 $x122 $x114 $x111 $x36 (>= S_3 (+ A_2 ?x488 ?x540)) (>= S_2 (+ A_1 ?x478 ?x540)) $x117 (or $x64 (<= S_2 (+ A_2 ?x488 ?x540))) (<= ?x229 ?x891) (>= S_1 ?x229) (<= S_4 (+ A_3 ?x488 C)) $x120 (or $x54 (<= S_1 (+ A_1 ?x478 ?x540))) (or $x54 (<= S_2 (+ A_1 ?x478 ?x540 C))) (or $x54 (<= S_0 ?x229)) (>= S_0 (+ ?x540 ?x478 A_1 (* (- 2.0) C))) (or $x834 (>= S_4 (+ A_1 ?x478 ?x540 (* 2.0 C)))) (or $x54 (<= S_3 (+ A_1 ?x478 ?x540 (* 2.0 C)))) (or $x64 (not (<= L_2 L_1))) (>= S_2 ?x7499) (or $x54 $x64 (= (+ A_2 ?x488) (+ A_1 ?x478 C))) (or $x64 (<= S_1 ?x7499)) (or $x834 (>= S_4 (+ A_2 ?x488 ?x540 C))) (or $x64 $x7572 (<= S_0 (+ ?x540 ?x488 A_2 (* (- 2.0) C)))) (or $x54 (not (<= L_1 L_0))) $x7592 (>= S_0 (+ ?x540 ?x488 A_2 ?x2223)) (<= (+ ?x540 ?x488 A_2 (* (- 2.0) C)) ?x891) (>= S_1 (+ ?x540 ?x488 A_2 (* (- 2.0) C))) (or $x54 (not (= L_1 L_2)) (<= (+ A_2 ?x511 ?x320) 0.0)) $x10440 (>= S_3 (+ A_1 ?x478 ?x540 C)) (or $x64 (<= S_4 (+ A_2 ?x488 ?x540 (* 2.0 C)))) $x7765 (<= S_4 (+ A_4 ?x488)) (or $x54 (<= S_4 (+ A_1 ?x478 ?x540 (* 3.0 C)))) (or $x54 $x7784) (or $x834 (<= (+ C (* (- 1.0) S_4) S_2) 0.0)) (<= (+ (* (- 2.0) C) ?x220 S_2) 0.0) (<= (+ ?x511 L_0 S_1) 0.0) (or $x834 (<= (+ (* 2.0 C) S_1 (* (- 1.0) S_4)) 0.0)) (<= (+ L_0 ?x320 S_1 (* (- 1.0) A_0)) 0.0) (or $x64 (<= S_3 (+ A_2 ?x488 ?x540 C))) (<= (+ L_0 (* (- 2.0) C) S_2 (* (- 1.0) A_0)) 0.0) (<= (+ L_0 ?x511 ?x320 S_2) 0.0) $x7673 $x10412 (<= (+ L_0 S_3 ?x511 (* (- 2.0) C)) 0.0) (<= (+ L_0 ?x2223 S_3 (* (- 1.0) A_0)) 0.0) (<= (+ (* (- 4.0) C) (* (- 1.0) S_0) S_3) 0.0) $x10160 $x10154 (<= (+ (* (- 4.0) C) ?x220 S_4) 0.0) $x7992 (<= (+ ?x2223 ?x220 S_3) 0.0) (<= (+ (* (- 5.0) C) (* (- 1.0) S_0) S_4) 0.0) (<= (+ L_0 (* (- 4.0) C) S_4 (* (- 1.0) A_0)) 0.0) (<= (+ L_0 ?x511 S_4 ?x2223) 0.0) $x8089 $x8104 $x8143 (<= (+ L_0 ?x2223 ?x540 ?x499 A_3 S_4 (* (- 1.0) A_0)) 0.0) $x8099 (<= (+ ?x2223 ?x540 ?x220 ?x499 A_3 S_4) 0.0) $x562 $x732 $x37 (<= (+ L_0 S_0 (* (- 1.0) A_0)) 0.0) (<= (+ ?x2223 (* (- 1.0) S_0) S_2) 0.0) (<= (+ (* (- 2.0) C) S_3 (* (- 1.0) S_2)) 0.0) (<= (+ (* (- 2.0) C) S_1 (* (- 1.0) S_0)) 0.0) (<= (+ C S_1 (* (- 1.0) S_3)) 0.0) (<= (+ (* (- 2.0) C) (* (- 1.0) S_3) S_4) 0.0) (<= (+ ?x2223 S_4 (* (- 1.0) S_2)) 0.0)))))))))))))))))))))))))))))))))))))))))))))))
(check-sat)
